	0	1	2	3	4	5	6	7	8	9	10	11	
0	0	0	0	0	0	0	0	0	0	0	0	0	
1	0	0	0	0	6	6	6	6	6	6	6	6	
2	0	0	0	0	6	7	7	7	7	13	13	13	
3	0	0	5	5	6	7	11	12	12	13	13	18	
4	0	0	5	7	7	12	12	13	14	18	19	19	
5	0	0	5	7	7	12	12	13	14	18	19	20	
6	0	2	5	7	9	12	14	14	15	18	20	21	
7	0	2	5	7	9	12	14	14	15	18	20	21	
8	0	2	5	7	9	12	14	14	15	18	20	21	
9	0	2	5	7	9	12	14	14	15	18	20	21	
10	0	2	5	7	9	12	14	14	15	18	20	21	
This took 0 seconds
